RAW/XT/fspd-mid/X-n115-k10.vrp_seed-6.out
12211	0.158	182.628
