RAW/XT/fspd-mid/X-n115-k10.vrp_seed-6.sol
Route #1: 64 85 74 1 7 63 34
Route #2: 13 70 103 61 33 81 11 31 56 36
Route #3: 50 29 53 78 9 88 82 21 52
Route #4: 2 25 51 19 108 48 60 86 87 73 106 66 17 89 32 15
Route #5: 16 5 6
Route #6: 3 93 18 109 47 79 49 99 35 107 95 59 42 10
Route #7: 28 100 57 92 4 101 20 94 62 54 114 30 44 27 105
Route #8: 111 110 112 84 75 83 8 14 68 43 40 67 39 90 37 98 72 26 46
Route #9: 104 41 91 23 65 22 96 45 12 113 58 77 38 97 80 55 76 71 24 102 69
Cost 12211.000000